open_stacks/problem_10_20_1.sol
objective = 7;
s = [1, 2, 3, 6, 8, 11, 12, 14, 10, 13, 16, 20, 4, 9, 5, 7, 17, 19, 15, 18];
